c turning on binary mode checking
c parsing input formula with 259840 variables and 1039924 clauses
c finished parsing, read 27485068 bytes from proof file
c detected empty clause; start verification via backward checking
c 20373 of 1039924 clauses in core                            
c 30874 of 670738 lemmas in core using 364170 resolution steps
c 0 RAT lemmas in core; 4076 redundant literals in core lemmas
s VERIFIED
c verification time: 3.569 seconds
